
Gurobi 9.1.0 (win64) logging started Sun Dec 13 15:42:48 2020

Changed value of parameter LogFile to logs/iteration22
   Prev:   Default: 
Gurobi Optimizer version 9.1.0 build v9.1.0rc0 (win64)
Thread count: 4 physical cores, 8 logical processors, using up to 8 threads
Optimize a model with 136 rows, 1186 columns and 4492 nonzeros
Model fingerprint: 0x3b8dcbf2
Coefficient statistics:
  Matrix range     [1e+00, 1e+00]
  Objective range  [8e+02, 4e+03]
  Bounds range     [0e+00, 0e+00]
  RHS range        [1e+00, 1e+00]
Presolve removed 7 rows and 9 columns
Presolve time: 0.00s
Presolved: 129 rows, 1177 columns, 4481 nonzeros

Iteration    Objective       Primal Inf.    Dual Inf.      Time
       0    4.4794083e+04   9.200000e+01   0.000000e+00      0s
     603    7.3571167e+04   0.000000e+00   0.000000e+00      0s

Solved in 603 iterations and 0.02 seconds
Optimal objective  7.357116667e+04

Solutionx[27] 1.000000 
x[72] 1.000000 
x[118] 1.000000 
x[119] 1.000000 
x[132] 1.000000 
x[728] 0.666667 
x[821] 0.333333 
x[1222] 0.666667 
x[1336] 0.333333 
x[1772] 0.333333 
x[2863] 0.333333 
x[19012] 0.333333 
x[11274] 0.333333 
x[22568] 0.666667 
x[879] 0.333333 
x[7907] 0.333333 
x[17921] 0.666667 
x[6924] 1.000000 
x[25403] 0.666667 
x[12310] 0.333333 
x[28458] 0.333333 
x[32137] 1.000000 
x[13748] 0.333333 
x[29724] 0.666667 
x[14299] 0.833333 
x[6057] 0.166667 
x[26767] 0.333333 
x[3875] 0.666667 
x[29820] 0.333333 
x[14101] 0.666667 
x[29630] 0.666667 
x[15923] 0.333333 
x[17081] 0.333333 
x[16358] 0.333333 
x[3967] 0.333333 
x[6361] 0.166667 
x[6064] 0.166667 
x[7598] 0.500000 
x[19011] 0.166667 
x[3212] 0.333333 
x[3171] 0.333333 
x[20792] 0.333333 
x[6609] 0.333333 
x[11860] 0.166667 
x[22598] 0.166667 
x[2759] 0.166667 
x[28442] 0.166667 
x[1215] 0.166667 
x[3104] 0.333333 
x[3163] 0.666667 
x[3903] 0.166667 
x[5789] 0.166667 
x[9102] 0.166667 
x[31815] 1.000000 
x[11790] 1.000000 
x[4645] 0.666667 
x[19558] 1.000000 
x[1199] 0.333333 
x[16316] 0.333333 
x[8791] 1.000000 
x[17149] 1.000000 
x[11146] 0.333333 
x[22080] 1.000000 
x[188] 0.333333 
x[8163] 0.333333 
x[12587] 0.666667 
x[13217] 0.333333 
x[22499] 1.000000 
x[4747] 0.666667 
x[18849] 1.000000 
x[21353] 1.000000 
x[30408] 1.000000 
x[14382] 0.666667 
x[27948] 0.666667 
x[17093] 0.333333 
x[7093] 1.000000 
x[9076] 1.000000 
x[32480] 1.000000 
x[8299] 0.333333 
x[15135] 0.666667 
